15
2 0 3
3 1 3
4 0 1
4 1 4
4 2 4
5 0 3
5 1 4
5 2 4
5 4 1
6 1 2
6 3 1
6 5 3
7 4 2
7 6 4
8 0 1
8 3 3
8 4 1
8 7 4
9 3 4
10 0 4
10 1 2
10 5 3
10 6 1
10 7 2
10 8 2
11 0 4
11 2 3
11 3 4
11 5 2
11 6 4
11 8 4
11 9 4
11 10 1
12 0 2
12 2 3
12 5 3
12 6 1
12 9 1
12 10 3
13 1 4
13 3 4
13 5 1
13 6 4
13 9 1
13 11 2
13 12 3
14 0 4
14 1 1
14 4 1
14 6 1
14 9 4
14 10 4
14 13 2
